[2026-03-23T16:04:44.115Z] Pipeline "set_exp_3_exp_3_n028_c004_g005" → 2026_03_23_16_04_43_set_exp_3_exp_3_n028_c004_g005_max.sol
Set parameter WLSAccessID
Set parameter WLSSecret
Set parameter LicenseID to value 2792458
Set parameter LogFile to value "gurobi.log"
Using license file /root/gurobi.lic
Academic license 2792458 - for non-commercial use only - registered to an___@studenti.unipg.it

Gurobi Optimizer version 13.0.1 build v13.0.1rc0 (linux64 - "Ubuntu 24.04.4 LTS")
Copyright (c) 2026, Gurobi Optimization, LLC

Warning: Duplicate section found (read 'binary') - Is a variable name equal to an LP file format keyword?
Warning: Duplicate section found (read 'binary') - Is a variable name equal to an LP file format keyword?
Warning: Duplicate section found (read 'binary') - Is a variable name equal to an LP file format keyword?
Warning: Duplicate section found (read 'binary') - Is a variable name equal to an LP file format keyword?
Warning: Duplicate section found (read 'binary') - Is a variable name equal to an LP file format keyword?
Warning: Duplicate section found (read 'binary') - Is a variable name equal to an LP file format keyword?
Warning: Duplicate section found (read 'binary') - Is a variable name equal to an LP file format keyword?
Warning: Duplicate section found (read 'binary') - Is a variable name equal to an LP file format keyword?
Warning: Duplicate section found (read 'binary') - Is a variable name equal to an LP file format keyword?
Warning: Duplicate section found (read 'binary') - Is a variable name equal to an LP file format keyword?
Warning: Further warnings of this type will be omitted.
Read LP format model from file /root/bgw/data/uploads/2026_03_23_16_04_43_set_exp_3_exp_3_n028_c004_g005_max.lp
Reading time = 0.01 seconds
: 7592 rows, 602 columns, 22483 nonzeros

Using Gurobi shared library /opt/gurobi1301/linux64/lib/libgurobi.so.13.0.1

CPU model: AMD EPYC-Genoa Processor, instruction set [SSE2|AVX|AVX2|AVX512]
Thread count: 16 physical cores, 16 logical processors, using up to 16 threads

Academic license 2792458 - for non-commercial use only - registered to an___@studenti.unipg.it
Optimize a model with 7592 rows, 602 columns and 22483 nonzeros (Max)
Model fingerprint: 0xd2438ba7
Model has 8 linear objective coefficients
Variable types: 36 continuous, 566 integer (566 binary)
Coefficient statistics:
  Matrix range     [1e+00, 3e+01]
  Objective range  [1e+00, 1e+00]
  Bounds range     [1e+00, 1e+00]
  RHS range        [1e+00, 3e+01]

Found heuristic solution: objective 8.0000000
Presolve removed 1002 rows and 200 columns
Presolve time: 0.02s
Presolved: 6590 rows, 402 columns, 20020 nonzeros
Variable types: 0 continuous, 402 integer (392 binary)
Found heuristic solution: objective 11.0000000

Root relaxation: objective 3.500000e+01, 375 iterations, 0.02 seconds (0.03 work units)

    Nodes    |    Current Node    |     Objective Bounds      |     Work
 Expl Unexpl |  Obj  Depth IntInf | Incumbent    BestBd   Gap | It/Node Time

     0     0   35.00000    0   46   11.00000   35.00000   218%     -    0s
H    0     0                      16.0000000   35.00000   119%     -    0s
H    0     0                      19.0000000   35.00000  84.2%     -    0s
H    0     0                      22.0000000   35.00000  59.1%     -    0s
     0     0   35.00000    0   48   22.00000   35.00000  59.1%     -    0s
H    0     0                      23.0000000   35.00000  52.2%     -    0s
     0     0   35.00000    0   42   23.00000   35.00000  52.2%     -    0s
     0     0   35.00000    0   29   23.00000   35.00000  52.2%     -    0s
     0     0   35.00000    0   22   23.00000   35.00000  52.2%     -    0s
     0     0   35.00000    0   22   23.00000   35.00000  52.2%     -    0s
     0     0   35.00000    0   27   23.00000   35.00000  52.2%     -    0s
     0     0   35.00000    0   27   23.00000   35.00000  52.2%     -    0s
     0     0   35.00000    0   26   23.00000   35.00000  52.2%     -    0s
     0     0   35.00000    0   26   23.00000   35.00000  52.2%     -    0s
     0     0   35.00000    0   30   23.00000   35.00000  52.2%     -    0s
     0     0   35.00000    0   23   23.00000   35.00000  52.2%     -    0s
     0     0   35.00000    0   27   23.00000   35.00000  52.2%     -    0s
     0     0   35.00000    0   27   23.00000   35.00000  52.2%     -    0s
     0     0   35.00000    0   30   23.00000   35.00000  52.2%     -    0s
     0     0   35.00000    0   33   23.00000   35.00000  52.2%     -    0s
     0     0   35.00000    0   27   23.00000   35.00000  52.2%     -    0s
     0     0   35.00000    0   27   23.00000   35.00000  52.2%     -    0s
     0     0   35.00000    0   27   23.00000   35.00000  52.2%     -    0s
     0     2   35.00000    0   27   23.00000   35.00000  52.2%     -    0s

Cutting planes:
  Cover: 1
  Inf proof: 11

Explored 1024 nodes (149861 simplex iterations) in 2.96 seconds (4.16 work units)
Thread count was 16 (of 16 available processors)

Solution count 6: 23 22 19 ... 8

Optimal solution found (tolerance 1.00e-04)
Best objective 2.300000000000e+01, best bound 2.300000000000e+01, gap 0.0000%

Wrote result file '/root/bgw/data/results/2026_03_23_16_04_43_set_exp_3_exp_3_n028_c004_g005_max.sol'

